22 3
6 6 4
0 0 0 0 20 2 3 4 5 6 7 8 9 10 11 12 13 14 15 16 17 18 19 20 21
1 3 1 0 1 22
4 3 0 2 1 22
3 2 2 0 1 22
1 0 0 2 2 22 19
1 2 1 1 3 22 11 20
5 3 0 1 2 22 13
5 3 0 2 4 22 19 17 9
1 1 0 2 4 22 19 18 19
2 2 1 1 1 22
4 0 1 2 3 22 16 12
4 2 1 1 1 22
3 1 2 0 2 22 16
2 2 0 2 1 22
4 3 2 0 1 22
2 0 3 0 2 22 19
5 0 0 1 2 22 19
3 3 2 1 1 22
2 1 2 0 1 22
3 0 1 1 1 22
4 1 2 1 1 22
0 0 0 0 0
